SCIP version 5.0.0 [precision: 8 byte] [memory: block] [mode: optimized] [LP solver: NONE] [GitHash: 3bbd232]
Copyright (C) 2002-2017 Konrad-Zuse-Zentrum fuer Informationstechnik Berlin (ZIB)

External codes: 
  Readline EditLine w  GNU library for command line editing (gnu.org/s/readline)
  CppAD 20160000.1     Algorithmic Differentiation of C++ algorithms developed by B. Bell (www.coin-or.org/CppAD)
  ZLIB 1.2.5           General purpose compression library by J. Gailly and M. Adler (zlib.net)
  GMP 6.1.2            GNU Multiple Precision Arithmetic Library developed by T. Granlund (gmplib.org)

user parameter file <scip.set> not found - using default parameters

read problem <../../Split_data/output/statH/2/3_sample_statH.logreg>
============

File name	:	../../Split_data/output/statH/2/3_sample_statH.logreg
Problem name 	:	3_sample_statH
Number of data	:	216
Number of var	:	25
The given data has linear dependence
8 sets of column vector are linearly dependent:
{ 3 4}, { 5 6 7 8}, { 11 12}, { 14}, { 13 15}, { 17 18}, { 20 21 22}, { 24 25 26}, 

[dim=1] time: 0.009424
[dim=2] time: 0.018609
[dim=3] time: 0.024698
[dim=4] time: 0.02856
[dim=5] time: 0.033081
[dim=6] time: 0.03682
[dim=7] time: 0.040017
[dim=8] time: 0.04337
[dim=9] time: 0.046433
[dim=10] Time of forward = 0.049494sec.
AIC: 146.457
k: 9

[dim=17] time: 0.005245
[dim=16] time: 0.01004
[dim=15] time: 0.014652
[dim=14] time: 0.018076
[dim=13] time: 0.0209
[dim=12] time: 0.024092
[dim=11] time: 0.027968
[dim=10] time: 0.031176
[dim=9] Time of backward = 0.033848sec.
AIC: 148.917
k: 10
